NAME : morphed22-5-9
COMMENT : Generated using the function morphInstances from the R-package netgen (Bossek,2015) - Number of clusters: 5 Alpha: 0.5
TYPE : TSP
DIMENSION : 22
EDGE_WEIGHT_TYPE : EUC_2D
NODE_COORD_SECTION
1 21.0833321974 32.3889569014
2 39.2650975357 6.2958673304
3 56.7007645323 43.9755195785
4 21.6669647824 89.7386187685
5 63.3773076149 36.9599817265
6 14.6897929678 37.4075415553
7 43.6350891152 87.9059034238
8 41.2269810274 80.457550325
9 72.3021742885 16.1303267412
10 99.2069470345 78.1285811005
11 6.9843130673 43.1035641044
12 10.1521342616 93.56073612
13 83.614913933 2.0944098713
14 29.2201955491 86.9511988464
15 52.8360719864 75.3760501586
16 67.3081251963 68.6823297913
17 57.7043629974 13.7834956269
18 97.7449468168 66.8329487587
19 34.1729247141 96.394962783
20 48.608323881 72.2775223742
21 92.7133949473 50.4242169476
22 4.3585244943 19.5064832974
EOF
